NAME: ../File/prFile/tspFile/tsp_file26.tsp
COMMENT: TSP file generated by Python
TYPE: TSP
DIMENSION: 30
EDGE_WEIGHT_TYPE: EUC_2D
NODE_COORD_SECTION
1 36 1
2 100 37
3 81 36
4 38 38
5 19 87
6 77 12
7 94 66
8 2 63
9 53 34
10 45 48
11 54 55
12 34 8
13 92 24
14 50 35
15 77 17
16 66 32
17 98 8
18 88 90
19 17 27
20 61 84
21 8 72
22 82 93
23 7 7
24 43 38
25 97 72
26 19 40
27 99 48
28 94 27
29 52 83
30 24 74
EOF
